% File represents an instance of a Composite Structure problem to be solved by a CP framework
% Created on 2025-03-26 10:41:26.035
T = 50;
n = 16;
m = 24;
edges = [(1, 2),
(5, 6),
(9, 10),
(13, 14),
(2, 3),
(6, 7),
(10, 11),
(14, 15),
(4, 3),
(7, 8),
(11, 12),
(15, 16),
(5, 1),
(9, 5),
(13, 9),
(2, 6),
(10, 6),
(14, 10),
(3, 7),
(11, 7),
(15, 11),
(4, 8),
(12, 8),
(16, 12)];
counts = [|2, 16, 2, 16,
|2, 16, 2, 14,
|2, 16, 2, 12,
|2, 16, 2, 14,
|2, 16, 2, 18,
|2, 14, 2, 14,
|2, 14, 2, 12,
|2, 12, 2, 12,
|4, 16, 4, 20,
|4, 16, 4, 14,
|2, 16, 2, 14,
|2, 16, 2, 12,
|4, 18, 4, 24,
|4, 18, 4, 18,
|4, 18, 4, 14,
|2, 16, 2, 14|];
